outputs/case_155.model.txt
bank_shareholding_approved = False
bank_shareholding_percent = 10
bank_shareholding_not_reported = False
transaction_buy_real_estate_or_assets = False
transaction_sell_securities_real_estate_assets = True
bank_shareholding_not_approved = True
transaction_agent_or_commission_service = False
fhc_hold_approved = False
transaction_contract_payment_or_service = False
insurance_shareholding_percent = 10
insurance_shareholding_not_reported = True
insurance_shareholding_approved = False
fhc_shareholding_approved = False
fhc_board_approval_ratio = 3/5
fhc_shareholding_not_reported = True
bank_shareholding_excess_no_voting_right_enforced = True
bank_shareholding_change_percent = 2
insurance_shareholding_change_reported = False
bank_shareholding_change_reported = False
fhc_non_preferential_condition = False
insurance_shareholding_change_percent = 2
fhc_shareholding_percent = 10
fhc_hold_shares = 3
insurance_shareholding_excess_no_voting_right_enforced = True
bank_shareholding_reported_within_10_days = False
insurance_shareholding_reported_within_10_days = False
fhc_shareholding_not_approved = False
fhc_shareholding_excess_no_voting_right_enforced = True
fhc_board_attendance_ratio = 1/2
insurance_shareholding_not_approved = False
transaction_related_third_party = False
transaction_invest_or_buy_securities = False
fhc_applied = True
fhc_shareholding_pledge_to_subsidiary = False
shareholding_pledge_prohibited = True
shareholding_approval_obtained = False
shareholding_5_percent_reported = False
violation_60_18 = False
related_party_non_preferential_approval = False
violation_60_12 = False
violation_60_9 = False
shareholding_5_percent_change_reported = False
fhc_short_term_fund_violation = False
fhc_issue_condition_violated = False
fhc_shareholding_reported = False
shareholding_10_percent_reported = True
fhc_pledge_set = False
fhc_internal_control_executed = True
violation_60_2 = False
fhc_unapproved_real_estate_investment = False
fhc_report_or_announce_violated = False
violation_60_7 = False
fhc_hold_fhc_shares_violated = False
shareholding_approval_required = True
fhc_not_assist = False
violation_60_6 = False
violation_60_16 = False
fhc_dispose_within_deadline = True
violation_60_11 = False
fhc_confidentiality_breached = False
fhc_merger_approved = True
violation_60_3 = False
shareholding_excess_no_voting_right = True
fhc_internal_audit_established = True
fhc_capital_not_filled_in_time = False
violation_60_15 = False
violation_60_17 = False
bank_stock_registered = False
stock_registered = False
fhc_report_or_disclose_violated = False
fhc_ratio_or_disposal_violated = False
fhc_violate_45_1 = False
fhc_violate_45_4_ratio = False
violation_60_1 = False
fhc_reported = True
insurance_related_party_limit_set = False
related_party_loan_limit = 0
fhc_violate_53_1_2 = False
insurance_notify_done = False
insurance_shareholding_family_percent = 0
notify_insurance_if_1_percent_or_more = True
non_credit_transaction_types = True
violation_60_19 = False
fhc_violate_43_3_regulations = False
violation_60_13 = False
violation_60_10 = False
violation_60_14 = False
violation_60_4 = False
violation_60_5 = False
fhc_violate_43_1_2_4 = False
fhc_violate_56_2_order = False
fhc_shareholding_reported_within_10_days = False
shareholding_5_percent_reported_after_establishment = False
fhc_shareholding_change_reported = False
fhc_shareholding_change_percent = 0
shareholding_5_percent_change_reported_after_establishment = True
fhc_internal_control_established = True
fhc_violate_55_1_order = False
bank_subsidiary_all_related_party_transaction_amount = 0
bank_subsidiary_net_worth = 0
bank_subsidiary_all_related_party_limit = 1
penalty = False
fhc_increase_hold_violated = False
bank_subsidiary_single_related_party_transaction_amount = 0
bank_subsidiary_single_related_party_limit = 1
bank_notify_done = False
bank_shareholding_family_percent = 0
notify_bank_if_1_percent_or_more = True
violation_60_8 = False